peakDumbCharging = 7400; 
Machine = anon_enum(16); 
machineSpeed = [3700,3700,3700,3700,3700,3700,3700,3700,3700,3700,3700,3700,3700,3700,3700,3700]; 
machineLoad = [3700,3700,3700,3700,3700,3700,3700,3700,3700,3700,3700,3700,3700,3700,3700,3700]; 
Car = anon_enum(6); 
demandCar = [12000,23640,9200,19760,12680,5800]; 
arrivalCar = [70,68,61,51,45,40]; 
departureCar = [82,82,65,64,51,43]; 
